; benchmark generated from python API
(set-info :status unknown)
(declare-datatypes ((RealState 0)) (((RMk1 (rval1 Real)) (RMk2 (rval2 Real)))))
 (assert
 (forall ((|v17:0| Real) )(forall ((|v16:1| Real) )(forall ((|v15:2| Real) )(forall ((|v14:3| Real) )(forall ((|v13:4| Real) )(forall ((|v12:5| Real) )(exists ((|v11:6_st| RealState) (val!9672 Real) )(exists ((|v10:7_st| RealState) (val!9673 Real) )(exists ((|v9:8_st| RealState) (val!9674 Real) )(exists ((|v8:9_st| RealState) (val!9675 Real) )(exists ((|v7:10_st| RealState) (val!9676 Real) )(exists ((|v6:11_st| RealState) (val!9677 Real) )(forall ((|v5:12| Real) )(forall ((|v4:13| Real) )(forall ((|v3:14| Real) )(forall ((|v2:15| Real) )(forall ((|v1:16| Real) )(forall ((|v0:17| Real) )(let ((?x8555 (* 4.0 |v2:15|)))
 (let ((?x6880 (* 20.0 |v13:4|)))
 (let ((?x4447 (rval2 |v10:7_st|)))
 (let ((?x106 (* 16.0 ?x4447)))
 (let ((?x7358 (- 15.0)))
 (let ((?x8686 (* ?x7358 ?x4447)))
 (let ((?x1966 (+ (+ (+ (+ (+ (+ ?x8686 (* (- 1.0) ?x4447)) ?x8686) ?x106) ?x6880) ?x8555) (* ?x7358 |v12:5|))))
 (let ((?x5963 (* 19.0 |v3:14|)))
 (let ((?x6823 (* 7.0 |v15:2|)))
 (let ((?x1497 (+ (+ (* (- 2.0) (rval2 |v11:6_st|)) (* (- 4.0) (rval2 |v8:9_st|))) (* 14.0 (rval2 |v11:6_st|)))))
 (let ((?x7724 (+ (+ (+ (+ ?x1497 ?x6823) (* 12.0 (rval2 |v8:9_st|))) ?x5963) (* 2.0 (rval2 |v8:9_st|)))))
 (let ((?x1815 (* 20.0 |v2:15|)))
 (let ((?x7437 (* 12.0 |v3:14|)))
 (let ((?x1026 (- 13.0)))
 (let ((?x1562 (* ?x1026 |v12:5|)))
 (let ((?x9148 (* 10.0 |v5:12|)))
 (let ((?x2988 (+ (+ (* (- 6.0) |v1:16|) (* 17.0 |v2:15|)) ?x9148)))
 (let (($x5457 (<= (+ (+ (+ (+ ?x2988 (* (- 14.0) (rval2 |v6:11_st|))) ?x1562) ?x7437) ?x1815) 5.0)))
 (let ((?x4478 (* 18.0 ?x4447)))
 (let ((?x4973 (* 3.0 |v3:14|)))
 (let ((?x6539 (rval2 |v11:6_st|)))
 (let ((?x736 (- 10.0)))
 (let ((?x3576 (* ?x736 ?x6539)))
 (let ((?x9271 (+ (+ (+ (* 3.0 ?x4447) (* 8.0 |v12:5|)) (* (- 4.0) |v12:5|)) ?x3576)))
 (let (($x4361 (and (<= (+ (+ (+ ?x9271 ?x4973) (* (- 1.0) (rval2 |v9:8_st|))) ?x4478) 13.0) $x5457)))
 (let ((?x8639 (* 11.0 |v15:2|)))
 (let ((?x8334 (* 12.0 |v17:0|)))
 (let ((?x2347 (- 11.0)))
 (let ((?x5901 (* ?x2347 |v0:17|)))
 (let ((?x9379 (- 17.0)))
 (let ((?x5067 (* ?x9379 |v0:17|)))
 (let ((?x853 (+ (+ (+ (* 20.0 |v12:5|) (* 15.0 |v13:4|)) (* (- 20.0) ?x6539)) ?x5067)))
 (let (($x7938 (and (<= (+ (+ (+ ?x853 ?x5901) ?x8334) ?x8639) 18.0) (and $x4361 (or (<= ?x7724 16.0) (<= ?x1966 17.0))))))
 (let ((?x667 (- 1.0)))
 (let ((?x1786 (* ?x667 |v0:17|)))
 (let ((?x3206 (- 7.0)))
 (let ((?x7808 (* ?x3206 |v15:2|)))
 (let ((?x8683 (- 9.0)))
 (let ((?x6062 (* ?x8683 |v4:13|)))
 (let ((?x4508 (* 5.0 |v2:15|)))
 (let ((?x7423 (+ (+ (+ (* 2.0 (rval2 |v9:8_st|)) (* ?x1026 |v0:17|)) (* 5.0 |v3:14|)) ?x4508)))
 (let ((?x3611 (- 8.0)))
 (let ((?x8138 (* ?x736 |v16:1|)))
 (let ((?x4851 (* 7.0 |v13:4|)))
 (let ((?x8561 (rval2 |v9:8_st|)))
 (let ((?x570 (* 14.0 ?x8561)))
 (let ((?x3400 (+ (+ (+ (+ (* 0.0 (rval2 |v6:11_st|)) (* (- 18.0) |v0:17|)) ?x570) ?x6539) ?x4851)))
 (let (($x2175 (and (<= (+ (+ ?x3400 (* (- 20.0) (rval2 |v6:11_st|))) ?x8138) ?x3611) (<= (+ (+ (+ ?x7423 ?x6062) ?x7808) ?x1786) ?x736))))
 (let ((?x2198 (* 0.0 |v12:5|)))
 (let ((?x4166 (* 2.0 |v4:13|)))
 (let ((?x1948 (* 6.0 |v2:15|)))
 (let ((?x6514 (+ (+ (+ (* 3.0 |v17:0|) (* 11.0 ?x6539)) (* ?x3206 |v13:4|)) (* ?x667 |v13:4|))))
 (let ((?x2464 (- 14.0)))
 (let ((?x1241 (* ?x2464 |v5:12|)))
 (let ((?x8265 (+ (+ (+ (+ (* 16.0 |v4:13|) (* ?x1026 ?x8561)) (* ?x667 |v4:13|)) |v0:17|) (* ?x7358 ?x6539))))
 (let (($x7324 (and (<= (+ (+ ?x8265 ?x1241) (* 4.0 (rval2 |v6:11_st|))) 7.0) (<= (+ (+ (+ ?x6514 ?x1948) ?x4166) ?x2198) 13.0))))
 (let ((?x2622 (* 2.0 |v14:3|)))
 (let ((?x3913 (* ?x7358 |v4:13|)))
 (let ((?x2225 (* 0.0 |v3:14|)))
 (let ((?x3444 (+ (+ (+ (+ (* 18.0 |v15:2|) (* 6.0 ?x6539)) (* 6.0 |v14:3|)) ?x2225) (* (- 2.0) |v17:0|))))
 (let ((?x4335 (* 16.0 |v17:0|)))
 (let ((?x8752 (* ?x736 |v12:5|)))
 (let ((?x7993 (* 13.0 |v2:15|)))
 (let ((?x6040 (- 20.0)))
 (let ((?x430 (* ?x6040 |v1:16|)))
 (let ((?x9304 (+ (+ (* (- 12.0) |v12:5|) (* (- 16.0) (rval2 |v7:10_st|))) (* ?x8683 (rval2 |v6:11_st|)))))
 (let (($x1306 (or (<= (+ (+ (+ (+ ?x9304 ?x430) ?x7993) ?x8752) ?x4335) 4.0) (<= (+ (+ ?x3444 ?x3913) ?x2622) 2.0))))
 (let ((?x7644 (- 18.0)))
 (let ((?x2748 (* ?x7644 |v4:13|)))
 (let ((?x1720 (* 15.0 |v0:17|)))
 (let ((?x1094 (* 3.0 |v1:16|)))
 (let ((?x3095 (+ (+ (* ?x3206 |v5:12|) (* 0.0 |v2:15|)) ?x1094)))
 (let (($x8998 (<= (+ (+ (+ (+ ?x3095 (* ?x6040 ?x8561)) ?x1720) (* 3.0 ?x6539)) ?x2748) ?x3206)))
 (let ((?x5626 (- 2.0)))
 (let ((?x2045 (- 5.0)))
 (let ((?x5947 (* ?x2045 |v16:1|)))
 (let ((?x1612 (* ?x3611 |v2:15|)))
 (let ((?x4101 (* 10.0 |v16:1|)))
 (let ((?x5992 (+ (+ (+ (+ (* 11.0 (rval2 |v6:11_st|)) ?x1094) (* 9.0 |v16:1|)) ?x4101) ?x1612)))
 (let (($x1682 (or (or (or (<= (+ (+ ?x5992 ?x8561) ?x5947) ?x5626) $x8998) $x1306) (or $x7324 $x2175))))
 (let ((?x3826 (* 0.0 |v13:4|)))
 (let ((?x3532 (* 9.0 ?x6539)))
 (let ((?x3560 (- 3.0)))
 (let ((?x1646 (* ?x3560 |v5:12|)))
 (let ((?x7535 (+ (+ (+ (+ (* 5.0 |v5:12|) ?x3826) (* ?x2347 ?x4447)) (* 4.0 |v12:5|)) ?x1646)))
 (let ((?x167 (- 19.0)))
 (let ((?x9082 (* ?x7644 |v0:17|)))
 (let ((?x6295 (* 16.0 |v13:4|)))
 (let ((?x4423 (* 18.0 |v15:2|)))
 (let ((?x4982 (+ (+ (+ (+ (* 14.0 |v5:12|) (* 19.0 ?x4447)) ?x1094) (* 18.0 |v4:13|)) ?x4423)))
 (let (($x4125 (or (<= (+ (+ ?x4982 ?x6295) ?x9082) ?x167) (<= (+ (+ ?x7535 ?x3532) ?x3826) 9.0))))
 (let ((?x1894 (* 18.0 |v0:17|)))
 (let ((?x4904 (rval2 |v6:11_st|)))
 (let ((?x3646 (* 18.0 ?x4904)))
 (let ((?x3081 (- 16.0)))
 (let ((?x7469 (* ?x3081 |v2:15|)))
 (let ((?x3631 (* 16.0 |v2:15|)))
 (let ((?x2323 (+ (+ (+ (+ (* 10.0 |v14:3|) (* ?x2464 |v12:5|)) (* 6.0 |v12:5|)) ?x3631) ?x7469)))
 (let ((?x5464 (rval2 |v8:9_st|)))
 (let ((?x7240 (* 11.0 ?x5464)))
 (let ((?x536 (- 4.0)))
 (let ((?x4682 (* ?x536 |v13:4|)))
 (let ((?x6950 (* 15.0 ?x4904)))
 (let ((?x2188 (+ (+ (+ (+ (* ?x667 ?x5464) (* 12.0 |v16:1|)) (* 12.0 |v0:17|)) ?x2748) ?x6950)))
 (let (($x1421 (or (<= (+ (+ ?x2188 ?x4682) ?x7240) 11.0) (<= (+ (+ ?x2323 ?x3646) ?x1894) ?x2347))))
 (let ((?x1639 (- 6.0)))
 (let ((?x1382 (* 9.0 ?x4447)))
 (let ((?x2356 (+ (+ (+ (* ?x667 |v15:2|) (* ?x736 |v0:17|)) (* 10.0 |v0:17|)) (* ?x1639 |v12:5|))))
 (let ((?x879 (* 8.0 |v4:13|)))
 (let ((?x4412 (* 9.0 |v15:2|)))
 (let ((?x1030 (+ (+ (+ (+ ?x3646 (* 11.0 |v16:1|)) (* 18.0 |v1:16|)) (* 5.0 |v14:3|)) ?x4412)))
 (let (($x7219 (or (<= (+ (+ ?x1030 ?x3913) ?x879) 4.0) (<= (+ (+ (+ ?x2356 ?x1562) (* 20.0 (rval2 |v7:10_st|))) ?x1382) ?x1639))))
 (let ((?x8604 (* 9.0 |v12:5|)))
 (let ((?x8680 (* 8.0 |v1:16|)))
 (let ((?x7347 (* ?x3206 |v4:13|)))
 (let ((?x7253 (+ (+ (+ (+ (* ?x2464 |v17:0|) (* ?x9379 |v3:14|)) (* ?x7358 |v14:3|)) ?x7347) ?x8680)))
 (let ((?x5578 (* 16.0 |v0:17|)))
 (let ((?x4190 (* ?x6040 |v0:17|)))
 (let ((?x4692 (* ?x9379 |v5:12|)))
 (let ((?x3523 (* 20.0 ?x4447)))
 (let ((?x1027 (+ (+ (+ (+ (* ?x7358 |v3:14|) (* ?x2347 |v3:14|)) (* 5.0 ?x5464)) ?x3523) ?x4692)))
 (let (($x8238 (or (<= (+ (+ ?x1027 ?x4190) ?x5578) 8.0) (<= (+ (+ ?x7253 ?x8604) (* ?x3206 |v12:5|)) ?x2464))))
 (let ((?x6631 (* 0.0 ?x6539)))
 (let ((?x1968 (* 6.0 |v12:5|)))
 (let ((?x2137 (* 7.0 |v16:1|)))
 (let ((?x8564 (+ (+ (+ (+ (* ?x7644 ?x4447) ?x7240) (* ?x1026 ?x4447)) (* 19.0 ?x4904)) ?x2137)))
 (let ((?x1341 (* 8.0 |v13:4|)))
 (let ((?x2545 (* ?x3081 ?x4904)))
 (let ((?x600 (* 8.0 ?x8561)))
 (let ((?x4810 (+ (+ (+ (+ (* ?x1026 |v13:4|) (* ?x7644 ?x4447)) (* 11.0 |v17:0|)) ?x600) (* ?x3611 ?x4447))))
 (let (($x7140 (or (<= (+ (+ ?x4810 ?x2545) ?x1341) ?x1026) (<= (+ (+ ?x8564 ?x1968) ?x6631) 19.0))))
 (let ((?x9461 (* 15.0 |v17:0|)))
 (let ((?x3960 (* 7.0 |v1:16|)))
 (let ((?x9037 (+ (+ (+ (+ ?x3631 (* 10.0 |v17:0|)) (* ?x2347 |v17:0|)) (* 16.0 |v3:14|)) ?x3960)))
 (let ((?x5596 (* ?x6040 ?x6539)))
 (let ((?x3594 (* ?x2045 |v14:3|)))
 (let ((?x2663 (+ (+ (+ (* ?x3611 |v5:12|) (* ?x667 |v16:1|)) (* ?x3611 ?x6539)) (* ?x5626 |v14:3|))))
 (let (($x6400 (and (<= (+ (+ (+ ?x2663 ?x3594) ?x1948) ?x5596) 16.0) (<= (+ (+ ?x9037 (* 0.0 |v15:2|)) ?x9461) 20.0))))
 (let ((?x4757 (* 7.0 ?x4904)))
 (let ((?x6245 (rval2 |v7:10_st|)))
 (let ((?x2654 (* 7.0 ?x6245)))
 (let ((?x5812 (+ (+ (+ (+ (* 5.0 |v13:4|) (* 13.0 |v15:2|)) (* ?x9379 ?x6539)) ?x2654) ?x4757)))
 (let ((?x6832 (* 17.0 ?x8561)))
 (let ((?x2428 (* 5.0 |v13:4|)))
 (let ((?x3976 (+ (+ (+ (* 10.0 |v15:2|) (* ?x2045 |v4:13|)) (* ?x2347 |v4:13|)) (* 20.0 |v15:2|))))
 (let (($x2277 (and (<= (+ (+ (+ ?x3976 ?x2428) ?x6832) (* 18.0 |v13:4|)) ?x5626) (<= (+ (+ ?x5812 ?x5947) (* ?x3611 ?x8561)) 13.0))))
 (let ((?x4532 (* 2.0 |v17:0|)))
 (let ((?x4213 (+ (+ (+ (+ (+ (* ?x9379 |v13:4|) (* 10.0 |v0:17|)) ?x4335) ?x8138) ?x4532) ?x3532)))
 (let ((?x1028 (* ?x667 |v4:13|)))
 (let ((?x7832 (* ?x7358 |v15:2|)))
 (let ((?x7113 (+ (+ (+ (+ (* 6.0 |v4:13|) (* 10.0 |v12:5|)) ?x5596) (* ?x3081 |v17:0|)) ?x7832)))
 (let (($x4105 (or (or (<= (+ (+ ?x7113 ?x7469) ?x1028) ?x736) (<= (+ ?x4213 ?x1646) ?x2045)) $x2277)))
 (let (($x1838 (and (and $x4105 (or $x6400 $x7140)) (and (and $x8238 $x7219) (or $x1421 $x4125)))))
 (let ((?x7112 (* 13.0 |v13:4|)))
 (let ((?x1124 (* 3.0 |v0:17|)))
 (let ((?x972 (* 6.0 |v15:2|)))
 (let ((?x5627 (* ?x167 |v17:0|)))
 (let ((?x8058 (+ (+ (+ (+ (* ?x3081 |v17:0|) (* ?x5626 |v15:2|)) (* ?x536 |v17:0|)) ?x5627) ?x972)))
 (let ((?x8706 (* 7.0 |v0:17|)))
 (let ((?x1756 (* 20.0 |v16:1|)))
 (let ((?x6501 (+ (+ (+ (+ (+ ?x1894 (* 14.0 |v16:1|)) (* ?x667 |v5:12|)) ?x6539) ?x1756) ?x8706)))
 (let ((?x3717 (* ?x2464 |v4:13|)))
 (let ((?x4611 (* ?x2347 ?x4904)))
 (let ((?x6653 (* 10.0 |v13:4|)))
 (let ((?x709 (* 4.0 |v17:0|)))
 (let ((?x28 (+ (+ (+ (+ (* ?x536 |v3:14|) (* 16.0 |v5:12|)) (* ?x3560 ?x4904)) ?x709) ?x6653)))
 (let (($x840 (and (<= (+ (+ ?x28 ?x4611) ?x3717) 15.0) (<= (+ ?x6501 (* ?x3560 |v13:4|)) 1.0))))
 (let ((?x8172 (* 8.0 ?x5464)))
 (let ((?x8404 (* ?x8683 ?x4447)))
 (let ((?x7377 (* 4.0 |v12:5|)))
 (let ((?x3335 (+ (+ (+ (+ (* ?x3206 |v16:1|) (* ?x9379 |v13:4|)) (* ?x8683 ?x6245)) ?x7377) ?x8404)))
 (let ((?x6585 (* ?x667 |v17:0|)))
 (let ((?x6401 (* 12.0 |v2:15|)))
 (let ((?x5049 (+ (+ (+ (+ (* (- 12.0) ?x8561) (* ?x2464 |v3:14|)) (* 19.0 ?x8561)) ?x6401) ?x6585)))
 (let (($x6326 (or (<= (+ (+ ?x5049 (* ?x5626 ?x4447)) (* 2.0 ?x6245)) ?x3081) (<= (+ (+ ?x3335 ?x8172) (* ?x3081 |v16:1|)) 17.0))))
 (let ((?x2366 (- 12.0)))
 (let ((?x1718 (* 9.0 |v1:16|)))
 (let ((?x8130 (* 8.0 |v12:5|)))
 (let ((?x7408 (* 19.0 |v0:17|)))
 (let ((?x8332 (+ (+ (+ (+ (+ ?x6653 ?x4447) (* ?x1026 ?x6245)) (* ?x3560 |v3:14|)) ?x7408) ?x8130)))
 (let ((?x1434 (* 16.0 |v5:12|)))
 (let ((?x157 (* ?x3206 |v0:17|)))
 (let ((?x3840 (* 15.0 |v2:15|)))
 (let ((?x5907 (+ (+ (+ (+ (* 12.0 ?x4904) (* ?x667 |v2:15|)) ?x7437) (* 14.0 ?x4447)) ?x3840)))
 (let (($x354 (or (and (<= (+ (+ ?x5907 ?x157) ?x1434) 17.0) (<= (+ ?x8332 ?x1718) ?x2366)) $x6326)))
 (let ((?x1481 (* ?x1026 |v5:12|)))
 (let ((?x4700 (+ (+ (+ (+ (+ ?x5596 (* 17.0 ?x4447)) ?x3532) ?x4532) (* ?x7644 ?x5464)) (* 15.0 ?x6245))))
 (let ((?x785 (* ?x536 |v1:16|)))
 (let ((?x3238 (* 6.0 ?x5464)))
 (let ((?x1983 (+ (+ (+ (+ (* 18.0 |v14:3|) (* 4.0 |v5:12|)) ?x3576) (* 18.0 |v14:3|)) ?x3238)))
 (let ((?x5048 (* ?x8683 |v1:16|)))
 (let ((?x5675 (* ?x3611 |v5:12|)))
 (let ((?x7714 (+ (+ (+ (+ (* 2.0 ?x4447) (* ?x2366 ?x8561)) (* 18.0 |v1:16|)) ?x5675) ?x5048)))
 (let ((?x4560 (* 7.0 ?x8561)))
 (let ((?x8934 (* 12.0 ?x6539)))
 (let ((?x8529 (+ (+ (+ (+ (+ ?x5947 (* ?x1639 ?x6245)) ?x4757) (* ?x7644 |v15:2|)) ?x8934) (* ?x667 |v14:3|))))
 (let (($x7167 (or (<= (+ ?x8529 ?x4560) ?x1026) (<= (+ (+ ?x7714 ?x6832) (* 18.0 |v16:1|)) 1.0))))
 (let (($x7392 (or $x7167 (or (<= (+ (+ ?x1983 ?x785) |v0:17|) ?x536) (<= (+ ?x4700 ?x1481) 5.0)))))
 (let ((?x5339 (* ?x2366 |v16:1|)))
 (let ((?x7548 (* 10.0 |v0:17|)))
 (let ((?x4884 (* ?x3081 |v3:14|)))
 (let ((?x2174 (+ (+ (+ (+ (* ?x3206 ?x4447) (* 14.0 |v0:17|)) (* 9.0 ?x6245)) ?x4884) ?x7548)))
 (let (($x5827 (and (or (<= (+ (+ ?x2174 ?x9148) ?x5339) 18.0) $x7392) (and $x354 (and $x840 (<= (+ (+ ?x8058 ?x1124) ?x7112) 14.0))))))
 (let ((?x1797 (* 15.0 |v12:5|)))
 (let ((?x2416 (* 17.0 ?x4904)))
 (let ((?x4285 (+ (+ (+ (+ (+ (* 17.0 |v5:12|) ?x5464) ?x709) (* ?x536 |v17:0|)) ?x2416) ?x1797)))
 (let ((?x312 (* 18.0 |v5:12|)))
 (let ((?x2177 (+ (+ (+ (+ (* ?x2045 ?x5464) ?x1718) (* ?x7644 ?x5464)) (* 5.0 |v16:1|)) (* 12.0 |v14:3|))))
 (let ((?x1670 (* 7.0 |v3:14|)))
 (let ((?x2425 (+ (+ (+ (+ (+ ?x6950 (* 11.0 |v12:5|)) (* 18.0 ?x5464)) ?x5627) ?x1670) (* ?x1639 ?x4447))))
 (let (($x799 (or (<= (+ ?x2425 ?x2198) ?x7644) (<= (+ (+ ?x2177 (* ?x7644 |v14:3|)) ?x312) ?x167))))
 (let ((?x8367 (* ?x9379 |v2:15|)))
 (let ((?x3407 (+ (+ (+ (+ (+ ?x5339 ?x2622) ?x2198) (* ?x667 ?x6539)) ?x709) (* ?x536 |v14:3|))))
 (let ((?x400 (+ (+ (+ (+ (+ (* ?x3611 ?x4904) ?x3594) ?x6585) (* ?x2347 |v14:3|)) ?x5947) ?x8172)))
 (let ((?x390 (* ?x5626 |v0:17|)))
 (let ((?x6073 (* 4.0 |v14:3|)))
 (let ((?x8677 (+ (+ (+ (+ ?x157 (* 4.0 |v1:16|)) (* ?x2366 ?x6245)) (* 11.0 |v2:15|)) ?x6073)))
 (let ((?x203 (* 3.0 ?x5464)))
 (let ((?x8224 (* 19.0 ?x6245)))
 (let ((?x5931 (* 15.0 |v3:14|)))
 (let ((?x4622 (+ (+ (+ (+ (* ?x1639 ?x6539) (* 0.0 |v1:16|)) (* ?x167 |v13:4|)) ?x5931) ?x8224)))
 (let (($x415 (and (<= (+ (+ ?x4622 ?x1815) ?x203) 19.0) (<= (+ (+ ?x8677 ?x390) (* ?x6040 ?x6245)) ?x5626))))
 (let (($x7992 (and $x415 (and (<= (+ ?x400 ?x1670) 10.0) (<= (+ ?x3407 ?x8367) 20.0)))))
 (let ((?x5139 (* ?x2464 |v3:14|)))
 (let ((?x1361 (* ?x5626 |v3:14|)))
 (let ((?x2536 (* 19.0 |v4:13|)))
 (let ((?x4596 (+ (+ (+ (+ (+ ?x9148 ?x6295) (* ?x3206 |v5:12|)) (* ?x8683 ?x5464)) ?x2536) ?x1361)))
 (let ((?x4552 (* ?x1026 |v13:4|)))
 (let ((?x2392 (* ?x3611 |v16:1|)))
 (let ((?x3827 (+ (+ (+ (+ (* ?x736 |v17:0|) (* ?x2464 |v12:5|)) |v4:13|) (* 11.0 ?x8561)) ?x2392)))
 (let ((?x8013 (* 16.0 |v14:3|)))
 (let ((?x4773 (* 16.0 |v12:5|)))
 (let ((?x2577 (* 2.0 ?x4447)))
 (let ((?x3172 (+ (+ (+ (+ (+ ?x5048 |v13:4|) (* 9.0 ?x4904)) (* 0.0 |v14:3|)) ?x2577) ?x4773)))
 (let (($x3293 (and (<= (+ ?x3172 ?x8013) ?x3611) (and (<= (+ (+ ?x3827 ?x4552) ?x2428) 18.0) (<= (+ ?x4596 ?x5139) 17.0)))))
 (let ((?x4296 (* ?x667 |v1:16|)))
 (let ((?x4045 (+ (+ (+ (+ (+ (+ ?x4552 ?x9082) (* 16.0 ?x8561)) ?x785) ?x5963) ?x8404) ?x4296)))
 (let ((?x7063 (* ?x7644 |v15:2|)))
 (let ((?x5934 (+ (+ (+ (+ (* ?x736 |v5:12|) (* ?x6040 |v4:13|)) ?x8404) (* ?x667 |v5:12|)) ?x4682)))
 (let ((?x3687 (* ?x8683 ?x8561)))
 (let ((?x3807 (* ?x7358 |v17:0|)))
 (let ((?x5707 (+ (+ (+ (+ ?x8561 (* ?x1639 ?x5464)) (* 17.0 |v16:1|)) (* ?x8683 ?x6539)) ?x3807)))
 (let ((?x6303 (* 11.0 |v0:17|)))
 (let ((?x8768 (* ?x1026 ?x6245)))
 (let ((?x9031 (+ (+ (+ (+ (* 17.0 |v16:1|) ?x8768) (* ?x536 |v4:13|)) (* 2.0 |v2:15|)) (* 4.0 |v16:1|))))
 (let (($x5045 (or (<= (+ (+ ?x9031 ?x8768) ?x6303) 19.0) (<= (+ (+ ?x5707 ?x4532) ?x3687) ?x167))))
 (let (($x2095 (or (or $x5045 (and (<= (+ (+ ?x5934 ?x7437) ?x7063) ?x1026) (<= ?x4045 3.0))) $x3293)))
 (let (($x7858 (and (and $x2095 (or $x7992 (or $x799 (<= (+ ?x4285 (* ?x1026 ?x5464)) ?x2464)))) $x5827)))
 (let ((?x6676 (* 3.0 ?x4447)))
 (let ((?x6268 (* ?x6040 |v2:15|)))
 (let ((?x7776 (* 16.0 ?x8561)))
 (let ((?x2442 (* ?x3206 |v14:3|)))
 (let ((?x3155 (+ (+ (+ (+ (* 6.0 |v14:3|) (* ?x536 |v0:17|)) (* ?x3081 |v5:12|)) ?x2442) ?x7776)))
 (let ((?x3735 (* ?x3560 |v4:13|)))
 (let ((?x5629 (+ (+ (+ (+ (* ?x3081 |v0:17|) ?x4757) (* ?x3081 ?x4447)) (* 8.0 ?x4447)) ?x3735)))
 (let (($x7676 (or (<= (+ (+ ?x5629 (* ?x2045 ?x8561)) ?x3687) 20.0) (<= (+ (+ ?x3155 ?x6268) ?x6676) ?x3206))))
 (let ((?x7496 (+ (+ (+ (+ (+ ?x8367 ?x5464) (* 13.0 ?x5464)) ?x5931) (* ?x1026 |v14:3|)) ?x7437)))
 (let ((?x6252 (* 17.0 ?x5464)))
 (let ((?x7490 (* ?x3611 |v1:16|)))
 (let ((?x1887 (* ?x3560 |v16:1|)))
 (let ((?x7729 (+ (+ (+ (+ (* 5.0 ?x6539) (* 11.0 ?x6245)) (* 20.0 ?x5464)) ?x1887) ?x8706)))
 (let (($x7452 (and (or (<= (+ (+ ?x7729 ?x7490) ?x6252) ?x167) (<= (+ ?x7496 ?x4552) 14.0)) $x7676)))
 (let ((?x1933 (* ?x3081 |v17:0|)))
 (let ((?x6360 (* ?x3611 |v4:13|)))
 (let ((?x4561 (* 6.0 |v13:4|)))
 (let ((?x5148 (+ (+ (+ (+ (* ?x1026 ?x8561) (* 7.0 |v17:0|)) (* ?x536 |v5:12|)) ?x4561) ?x6360)))
 (let ((?x1214 (* 18.0 |v2:15|)))
 (let ((?x609 (+ (+ (+ (+ (+ ?x2536 (* ?x2347 |v12:5|)) ?x5139) (* ?x8683 ?x6245)) ?x1214) ?x2748)))
 (let ((?x6595 (* 4.0 |v13:4|)))
 (let ((?x8951 (* 12.0 |v15:2|)))
 (let ((?x5622 (* 11.0 ?x6539)))
 (let ((?x2825 (+ (+ (+ (+ (* ?x3206 ?x4904) (* ?x3206 ?x4904)) (* 6.0 ?x4904)) ?x5622) ?x1815)))
 (let ((?x7139 (* 6.0 ?x6539)))
 (let ((?x4769 (* ?x667 ?x5464)))
 (let ((?x1851 (* ?x1639 |v0:17|)))
 (let ((?x5865 (+ (+ (+ (+ (* ?x3206 |v16:1|) (* ?x9379 |v12:5|)) (* ?x3611 ?x6539)) ?x1851) ?x4769)))
 (let ((?x1309 (* 5.0 |v1:16|)))
 (let ((?x8584 (+ (+ (+ (+ (+ ?x5675 ?x1028) (* ?x2045 |v13:4|)) ?x6823) (* 10.0 ?x6539)) ?x2545)))
 (let (($x7658 (or (and (<= (+ ?x8584 ?x1309) ?x6040) (<= (+ (+ ?x5865 ?x6252) ?x7139) 15.0)) (and (<= (+ (+ ?x2825 ?x8951) ?x6595) 2.0) (<= (+ ?x609 ?x1670) ?x536)))))
 (let ((?x8235 (* 4.0 |v3:14|)))
 (let ((?x4766 (* ?x1639 |v5:12|)))
 (let ((?x8115 (+ (+ (+ (+ ?x1434 (* ?x5626 |v12:5|)) (* 19.0 |v15:2|)) (* 7.0 |v14:3|)) ?x5675)))
 (let ((?x6010 (* 18.0 |v14:3|)))
 (let ((?x4197 (+ (+ (+ (+ ?x5622 (* ?x8683 |v14:3|)) ?x312) (* ?x1026 |v17:0|)) (* ?x1639 |v17:0|))))
 (let (($x406 (or (<= (+ (+ ?x4197 ?x2442) ?x6010) 4.0) (<= (+ (+ ?x8115 ?x4766) ?x8235) 16.0))))
 (let ((?x6208 (* ?x536 |v3:14|)))
 (let ((?x3813 (+ (+ (+ (+ ?x3523 (* 16.0 |v16:1|)) (* 17.0 |v12:5|)) (* ?x3560 |v2:15|)) (* 0.0 ?x8561))))
 (let ((?x96 (* ?x3206 ?x5464)))
 (let ((?x3878 (* ?x8683 |v14:3|)))
 (let ((?x9005 (+ (+ (+ (+ (* ?x7358 ?x8561) (* ?x536 |v2:15|)) (* 5.0 |v12:5|)) ?x3878) (* ?x2366 |v17:0|))))
 (let (($x9460 (and (<= (+ (+ ?x9005 (* ?x2464 ?x8561)) ?x96) 16.0) (<= (+ (+ ?x3813 ?x6208) ?x6245) ?x9379))))
 (let (($x4409 (or (or (and $x9460 $x406) $x7658) (and (<= (+ (+ ?x5148 (* ?x7358 ?x4904)) ?x1933) ?x3560) $x7452))))
 (let ((?x8992 (* 5.0 |v12:5|)))
 (let ((?x1007 (+ (+ (+ (+ (* ?x536 |v0:17|) ?x4973) (* 8.0 |v15:2|)) (* 8.0 |v17:0|)) ?x1887)))
 (let ((?x265 (* 20.0 |v14:3|)))
 (let ((?x5976 (+ (+ (+ (+ (* 19.0 |v1:16|) (* 18.0 |v12:5|)) (* 6.0 ?x4447)) ?x265) (* 10.0 ?x4447))))
 (let (($x6604 (or (<= (+ (+ ?x5976 ?x6631) ?x4166) 11.0) (<= (+ (+ ?x1007 ?x1214) ?x8992) 14.0))))
 (let ((?x3262 (* ?x736 ?x8561)))
 (let ((?x8599 (* 20.0 |v4:13|)))
 (let ((?x2574 (+ (+ (+ (+ (* ?x8683 |v3:14|) (* 4.0 ?x5464)) ?x6676) (* 7.0 ?x4447)) ?x6832)))
 (let ((?x5651 (* ?x3611 |v13:4|)))
 (let ((?x7798 (* ?x9379 ?x6539)))
 (let ((?x5803 (* ?x5626 |v2:15|)))
 (let ((?x8875 (* ?x1026 |v17:0|)))
 (let ((?x6422 (+ (+ (+ (+ (* 14.0 |v13:4|) (* 18.0 |v1:16|)) (* ?x3560 |v1:16|)) ?x8875) ?x5803)))
 (let (($x2474 (or (<= (+ (+ ?x6422 ?x7798) ?x5651) 3.0) (<= (+ (+ ?x2574 ?x8599) ?x3262) ?x3081))))
 (let ((?x6395 (+ (+ (+ (+ ?x4560 (* ?x7644 |v2:15|)) (* ?x736 |v15:2|)) (* ?x2347 |v17:0|)) (* ?x3081 |v14:3|))))
 (let ((?x922 (* 2.0 |v0:17|)))
 (let ((?x5317 (+ (+ (+ (+ ?x157 (* ?x3081 ?x6539)) (* ?x667 |v5:12|)) (* ?x7358 |v0:17|)) (* ?x7644 ?x4904))))
 (let (($x7187 (and (<= (+ (+ ?x5317 (* ?x9379 ?x6245)) ?x922) 7.0) (<= (+ (+ ?x6395 ?x8599) ?x1670) ?x2045))))
 (let ((?x1282 (+ (+ (+ (+ (* ?x2045 |v5:12|) |v1:16|) (* 10.0 |v14:3|)) (* ?x7644 |v16:1|)) |v12:5|)))
 (let ((?x4760 (* 12.0 |v1:16|)))
 (let ((?x3211 (* 2.0 ?x8561)))
 (let ((?x1994 (+ (+ (+ (+ (+ ?x8555 ?x3262) (* 5.0 ?x4447)) ?x972) (* ?x6040 |v3:14|)) ?x3211)))
 (let (($x3510 (and (<= (+ ?x1994 ?x4760) ?x1639) (<= (+ (+ ?x1282 (* ?x1639 |v16:1|)) |v3:14|) 0.0))))
 (let ((?x7783 (* 17.0 |v4:13|)))
 (let ((?x5613 (* 14.0 |v5:12|)))
 (let ((?x5554 (+ (+ (+ (+ (+ ?x8604 (* ?x9379 ?x5464)) ?x2654) ?x9461) (* 17.0 |v2:15|)) ?x5613)))
 (let ((?x3820 (* 10.0 |v17:0|)))
 (let ((?x2430 (+ (+ (+ (+ (+ (* 16.0 ?x4904) ?x4508) (* 19.0 ?x4904)) ?x312) ?x3820) ?x8404)))
 (let ((?x5229 (* 8.0 |v16:1|)))
 (let ((?x5790 (+ (+ (+ (+ (+ (* 19.0 |v5:12|) (* 16.0 ?x4904)) ?x2577) ?x4611) ?x709) ?x5229)))
 (let ((?x9015 (* 7.0 |v4:13|)))
 (let ((?x4931 (* 4.0 ?x8561)))
 (let ((?x6384 (+ (+ (+ (+ (* 10.0 ?x4904) (* 6.0 ?x6245)) (* 13.0 ?x4904)) ?x8951) ?x4931)))
 (let (($x6996 (and (or (<= (+ (+ ?x6384 ?x5803) ?x9015) 12.0) (<= (+ ?x5790 ?x1124) ?x167)) (or (<= (+ ?x2430 ?x6252) ?x3611) (<= (+ ?x5554 ?x7783) 13.0)))))
 (let ((?x3458 (* ?x2464 |v2:15|)))
 (let ((?x691 (* 13.0 |v1:16|)))
 (let ((?x7510 (* 11.0 |v12:5|)))
 (let ((?x7602 (+ (+ (+ (+ (* 15.0 ?x5464) (* ?x3206 |v16:1|)) (* ?x3611 |v14:3|)) ?x7510) ?x691)))
 (let ((?x3502 (* ?x1639 ?x6245)))
 (let ((?x2705 (* ?x7644 |v3:14|)))
 (let ((?x4293 (+ (+ (+ (+ (* 14.0 ?x4904) (* 3.0 |v13:4|)) ?x1756) (* ?x167 |v14:3|)) ?x2705)))
 (let (($x8083 (and (<= (+ (+ ?x4293 ?x3502) ?x4560) ?x2366) (<= (+ (+ ?x7602 ?x3458) ?x2545) ?x7358))))
 (let ((?x2195 (+ (+ (+ (+ (* ?x2045 ?x5464) (* 18.0 |v17:0|)) (* ?x3206 ?x6539)) ?x3807) (* ?x167 ?x6245))))
 (let ((?x7773 (* ?x9379 |v1:16|)))
 (let ((?x7605 (+ (+ (+ (+ (* ?x1026 |v15:2|) (* 17.0 ?x6245)) (* ?x6040 |v5:12|)) ?x1124) ?x7773)))
 (let (($x9241 (or (<= (+ (+ ?x7605 ?x5651) (* 16.0 |v15:2|)) 8.0) (<= (+ (+ ?x2195 ?x2442) ?x7437) 7.0))))
 (let (($x3032 (and (and (or (or $x9241 $x8083) $x6996) (or (or $x3510 $x7187) (or $x2474 $x6604))) $x4409)))
 (let ((?x6926 (* ?x1026 |v1:16|)))
 (let ((?x4290 (* ?x167 |v13:4|)))
 (let ((?x4826 (+ (+ (+ (+ (* ?x736 ?x4904) ?x5578) (* ?x8683 |v13:4|)) (* 6.0 ?x6245)) ?x6245)))
 (let ((?x6658 (* ?x7644 ?x4447)))
 (let ((?x8105 (+ (+ (+ (+ (* ?x3206 |v3:14|) (* ?x3206 |v3:14|)) ?x5627) ?x6208) (* 5.0 |v15:2|))))
 (let ((?x2414 (* 9.0 |v16:1|)))
 (let ((?x6780 (* ?x2045 |v2:15|)))
 (let ((?x1745 (* ?x167 |v3:14|)))
 (let ((?x1617 (+ (+ (+ (+ (+ (* 9.0 |v5:12|) ?x7548) ?x1028) (* 3.0 |v14:3|)) ?x1745) ?x6780)))
 (let (($x913 (and (or (<= (+ ?x1617 ?x2414) ?x6040) (<= (+ (+ ?x8105 ?x6658) ?x8639) ?x8683)) (<= (+ (+ ?x4826 ?x4290) ?x6926) ?x7358))))
 (let ((?x1712 (* ?x8683 |v3:14|)))
 (let ((?x6298 (* ?x736 |v15:2|)))
 (let ((?x1505 (* ?x1639 ?x5464)))
 (let ((?x5787 (+ (+ (+ (+ (+ ?x7548 (* ?x1639 |v14:3|)) (* ?x5626 ?x5464)) ?x8768) ?x1505) ?x6298)))
 (let ((?x4545 (* 19.0 |v17:0|)))
 (let ((?x1518 (* 19.0 |v2:15|)))
 (let ((?x6809 (+ (+ (+ (+ (* ?x536 |v0:17|) (* ?x6040 |v5:12|)) (* 7.0 |v17:0|)) ?x8875) ?x1518)))
 (let (($x5794 (and (<= (+ (+ ?x6809 (* 13.0 ?x4447)) ?x4545) 13.0) (<= (+ ?x5787 ?x1712) ?x7644))))
 (let ((?x7269 (* ?x2347 |v2:15|)))
 (let ((?x587 (+ (+ (+ (+ (* 4.0 ?x4447) |v15:2|) (* ?x2464 |v15:2|)) (* 2.0 |v12:5|)) (* ?x6040 |v12:5|))))
 (let ((?x2586 (* ?x2366 |v5:12|)))
 (let ((?x6046 (* 2.0 ?x6539)))
 (let ((?x8937 (* ?x2045 |v1:16|)))
 (let ((?x6024 (+ (+ (+ (+ (+ (* 11.0 |v17:0|) ?x5803) ?x4760) (* ?x167 |v15:2|)) ?x8937) ?x6046)))
 (let (($x3990 (or (and (<= (+ ?x6024 ?x2586) 10.0) (<= (+ (+ ?x587 ?x6880) ?x7269) 12.0)) $x5794)))
 (let ((?x8122 (+ (+ (+ (+ (+ ?x4611 ?x2225) ?x9148) (* 18.0 |v1:16|)) (* ?x2366 |v0:17|)) (* ?x3560 |v17:0|))))
 (let ((?x5113 (+ (+ (+ (+ ?x4904 (* 8.0 |v2:15|)) (* 17.0 |v1:16|)) (* ?x167 ?x6539)) ?x5627)))
 (let (($x6482 (and (<= (+ (+ ?x5113 ?x6252) (* ?x3206 ?x8561)) ?x667) (<= (+ ?x8122 |v13:4|) 4.0))))
 (let ((?x6230 (+ (+ (+ (+ (+ (* ?x167 |v12:5|) (* ?x7644 |v16:1|)) ?x7798) ?x6676) ?x6539) ?x9461)))
 (let ((?x9492 (+ (+ (+ (+ (+ ?x3826 (* 13.0 |v17:0|)) ?x8768) ?x6823) ?x8224) (* ?x736 |v14:3|))))
 (let (($x7749 (and (<= (+ ?x9492 (* ?x5626 ?x8561)) 9.0) (<= (+ ?x6230 (* ?x9379 |v14:3|)) ?x8683))))
 (let ((?x8339 (* 14.0 ?x5464)))
 (let ((?x9309 (* 6.0 |v4:13|)))
 (let ((?x2644 (+ (+ (+ (+ (* ?x9379 |v13:4|) (* 11.0 |v2:15|)) (* ?x7358 |v1:16|)) ?x9309) ?x8339)))
 (let ((?x8691 (* 16.0 ?x6539)))
 (let ((?x2686 (+ (+ (+ (+ (+ ?x3820 (* ?x2347 ?x6539)) ?x2705) (* ?x167 |v0:17|)) ?x1745) ?x7139)))
 (let ((?x6824 (* ?x2045 |v4:13|)))
 (let ((?x4686 (+ (+ (+ (+ (* 18.0 ?x6245) (* 20.0 |v17:0|)) (* 14.0 |v13:4|)) ?x1815) |v13:4|)))
 (let ((?x5605 (+ (+ (+ (+ (+ ?x2392 ?x7832) (* 2.0 |v12:5|)) (* ?x3206 ?x6539)) ?x6245) (* ?x1639 |v13:4|))))
 (let (($x4812 (and (<= (+ ?x5605 ?x8752) ?x3206) (<= (+ (+ ?x4686 ?x6824) (* ?x3611 |v17:0|)) 16.0))))
 (let (($x6102 (and $x4812 (and (<= (+ ?x2686 ?x8691) ?x667) (<= (+ (+ ?x2644 ?x7240) ?x7808) ?x536)))))
 (let ((?x7511 (* ?x667 |v5:12|)))
 (let ((?x4668 (* 20.0 ?x8561)))
 (let ((?x3800 (+ (+ (+ (+ ?x1797 (* ?x536 ?x4447)) (* ?x2045 |v17:0|)) (* ?x2045 |v12:5|)) ?x4668)))
 (let ((?x498 (+ (+ (+ (+ (* ?x7358 |v14:3|) (* ?x2045 ?x5464)) (* ?x736 |v0:17|)) ?x1094) (* ?x7644 ?x6245))))
 (let (($x3089 (or (<= (+ (+ ?x498 ?x3913) ?x8992) ?x5626) (<= (+ (+ ?x3800 ?x7469) ?x7511) ?x536))))
 (let ((?x126 (* 3.0 ?x4904)))
 (let ((?x1339 (+ (+ (+ (* ?x5626 ?x6539) (* ?x9379 ?x4447)) (* 7.0 |v12:5|)) (* ?x2366 ?x4447))))
 (let ((?x5869 (* ?x8683 |v0:17|)))
 (let ((?x2498 (* 17.0 |v13:4|)))
 (let ((?x7761 (* ?x6040 |v3:14|)))
 (let ((?x4628 (+ (+ (+ (+ (+ (* 10.0 ?x6539) (* ?x9379 |v3:14|)) ?x7761) ?x879) ?x7761) ?x2498)))
 (let ((?x3526 (* 19.0 ?x4904)))
 (let ((?x3236 (+ (+ (+ (+ (+ (+ (* 13.0 |v14:3|) ?x4423) ?x6658) ?x96) ?x5229) ?x3526) ?x4668)))
 (let ((?x3597 (* 13.0 |v17:0|)))
 (let ((?x3920 (* 18.0 |v17:0|)))
 (let ((?x3796 (+ (+ (+ (+ (* ?x7644 |v12:5|) (* 13.0 ?x6539)) ?x8639) (* ?x2347 |v3:14|)) ?x5869)))
 (let (($x9210 (and (and (<= (+ (+ ?x3796 ?x3920) ?x3597) 10.0) (<= ?x3236 14.0)) (<= (+ ?x4628 ?x5869) 0.0))))
 (let (($x7124 (or $x9210 (or (<= (+ (+ (+ ?x1339 ?x126) (* 17.0 |v14:3|)) ?x8013) ?x667) $x3089))))
 (let ((?x5889 (* 17.0 ?x4447)))
 (let ((?x8073 (+ (+ (+ (+ (+ (+ ?x9148 ?x4884) ?x6595) ?x6658) (* 14.0 |v4:13|)) ?x5889) (* 19.0 ?x5464))))
 (let (($x236 (or (or (<= ?x8073 ?x1026) $x7124) (or (or $x6102 (or $x7749 $x6482)) (and $x3990 $x913)))))
 (let (($x4184 (not (= |v6:11_st| (RMk1 val!9677)))))
 (let (($x3947 (not (= |v7:10_st| (RMk1 val!9676)))))
 (let (($x3746 (not (= |v8:9_st| (RMk1 val!9675)))))
 (let (($x3505 (not (= |v9:8_st| (RMk1 val!9674)))))
 (let (($x1202 (not (= |v10:7_st| (RMk1 val!9673)))))
 (let (($x2351 (not (= |v11:6_st| (RMk1 val!9672)))))
 (and $x2351 $x1202 $x3505 $x3746 $x3947 $x4184 (and (or $x236 $x3032) (or $x7858 (and $x1838 (and $x1682 $x7938)))))))))))))))))))))))))))))))))))))))))))))))))))))))))))))))))))))))))))))))))))))))))))))))))))))))))))))))))))))))))))))))))))))))))))))))))))))))))))))))))))))))))))))))))))))))))))))))))))))))))))))))))))))))))))))))))))))))))))))))))))))))))))))))))))))))))))))))))))))))))))))))))))))))))))))))))))))))))))))))))))))))))))))))))))))))))))))))))))))))))))))))))))))))))))))))))))))))))))))))))))))))))))))
 )
 )
 )
 )
 )
 )
 )
 )
 )
 )
 )
 )
 )
 )
 )
 )
 )
 )
(check-sat)
